============================[ Problem Statistics ]=============================
|                                                                             |
|  Number of variables:      48505464                                         |
|  Number of clauses:       120975196                                         |
|  Parse time:                  26.06 s                                       |
|  Eliminated clauses:        1260.61 Mb                                      |
|  Simplification time:        202.18 s                                       |
|                                                                             |
============================[ Search Statistics ]==============================
| Conflicts |          ORIGINAL         |          LEARNT          | Progress |
|           |    Vars  Clauses Literals |    Limit  Clauses Lit/Cl |          |
===============================================================================
|       100 | 5191909 24910637 79159749 |  9133900      100     12 | 15.333 % |
|       250 | 5191909 24910637 79159749 | 10047290      250      8 | 15.333 % |
|       475 | 5191909 24910637 79159749 | 11052019      475      6 | 15.333 % |
|       812 | 5191909 24910637 79159749 | 12157221      812      6 | 15.333 % |
|      1318 | 5191909 24910637 79159749 | 13372943     1318      7 | 15.333 % |
|      2077 | 5191909 24910637 79159749 | 14710237     2077      6 | 15.333 % |
|      3216 | 5191909 24910637 79159749 | 16181261     3216      6 | 15.333 % |
|      4924 | 5191909 24910637 79159749 | 17799387     4924      7 | 15.333 % |
|      7486 | 5191909 24910637 79159749 | 19579326     7486      7 | 15.333 % |
|     11330 | 5191909 24910637 79159749 | 21537258    11330      8 | 15.333 % |
|     17096 | 5191909 24910637 79159749 | 23690984    17096      8 | 15.333 % |
|     25745 | 5191909 24910637 79159749 | 26060083    25745      9 | 15.333 % |
===============================================================================
restarts              : 94
conflicts             : 26216          (25 /sec)
decisions             : 239335536      (0.00 % random) (232714 /sec)
propagations          : 4026425339     (3915029 /sec)
conflict literals     : 223742         (1.65 % deleted)
Memory used           : 7728.98 MB
CPU time              : 1028.45 s

INDETERMINATE
File benchmarkfile12.cnf timed out after 2880 seconds.
